c ---- [ banner ] ------------------------------------------------------------
c
c Kissat SAT Solver
c 
c Copyright (c) 2021-2024 Armin Biere University of Freiburg
c Copyright (c) 2019-2021 Armin Biere Johannes Kepler University Linz
c 
c Version 4.0.1 43f02cf3e992cb44653b35e5cb26f93281552ae0
c gcc (Ubuntu 13.2.0-23ubuntu4) 13.2.0 -W -Wall -O3 -DNDEBUG
c Thu Sep 12 12:27:46 CEST 2024 Linux abryzen9 6.8.0-41-generic x86_64
c
c ---- [ parsing ] -----------------------------------------------------------
c
c opened and reading DIMACS file:
c
c   /data/artifact/AMulet2.0_artifact/exp4/cnf_resyn3_64/64_64_U1_WT_JCA_Multgen_resyn3.cnf
c
c parsed 'p cnf 27018 118828' header
c closing input after reading 2352843 bytes (2 MB)
c finished parsing after 0.02 seconds
c
c ---- [ options ] -----------------------------------------------------------
c
c --stable=0                       (different from default '1')
c
c ---- [ solving ] -----------------------------------------------------------
c
c  seconds switched rate     size/glue tier1  binary           remaining
c         MB reductions conflicts size  tier2     irredundant
c          level restarts redundant glue  trail           variables
c
c *  0.02 10 0 0 0  0 0   0   0 0.0 0 0 0 0 0% 12266 106560 27015 100%
c (  0.03 11 0 0 0  0 0   0   0 0.0 0 0 0 0 0% 12266 106560 27015 100%
c .  0.03 11 0 0 0  0 0   0   0 0.0 0 0 0 0 0% 12262 106560 27015 100%
c c  0.08 16 0 0 0  0 0   0   0 0.0 0 0 0 0 0% 12281 106559 27013 100%
c d  0.08 16 0 0 0  0 0   0   0 0.0 0 0 0 0 0% 12277 106559 27013 100%
c f  0.18 16 0 0 0  0 0   0   0 0.0 0 0 0 0 0% 17011 98966 29716 110%
c e  0.31 25 0 0 0  0 0   0   0 0.0 0 0 0 0 0% 11117 107136 20849 77%
c )  0.31 25 0 0 0  0 0   0   0 0.0 0 0 0 0 0% 11117 107136 20849 77%
c {  0.32 25 0 0 0  0 0   0   0 0.0 0 0 2 6 0% 11117 107136 20849 77%
c -  0.49 25 114 0 1 295 32 1000 675 2.3 13 6 3 14 13% 11258 107129 20849 77%
c -  0.64 27 315 0 2 385 36 2000 1317 2.7 15 5 3 12 18% 11325 107126 20849 77%
c d  0.78 27 314 0 2 479 38 2504 1743 2.9 16 6 3 12 19% 11311 107126 20835 77%
c u  0.81 27 314 0 2 479 38 2504 1389 2.9 16 6 3 12 19% 11324 107126 20835 77%
c v  0.83 27 314 0 2 479 38 2504 1271 2.9 16 6 3 12 19% 11324 107126 20835 77%
c w  0.85 27 314 0 2 479 38 2504 1271 2.9 16 6 3 12 19% 11324 107126 20835 77%
c x  0.87 27 314 0 2 479 38 2504 1271 2.9 16 6 3 12 19% 11326 106948 20835 77%
c d  0.88 27 314 0 2 479 38 2504 1270 2.9 16 6 3 12 19% 11324 106948 20834 77%
c f  0.91 27 314 0 2 479 38 2504 1270 2.9 16 6 3 12 19% 12032 105419 21448 79%
c c  0.99 23 314 0 2 479 38 2504 1244 2.9 16 6 3 12 19% 12045 105378 21441 79%
c d  1.00 23 314 0 2 479 38 2504 1244 2.9 16 6 3 12 19% 12031 105378 21441 79%
c
c  seconds   switched   rate       size/glue tier1     binary           remaining
c         MB  reductions conflicts       size  tier2       irredundant
c           level restarts    redundant    glue    trail           variables
c
c u  1.01 23 314 0 2 479 38 2504 1210 2.9 16 6 3 12 19% 12033 105378 21441 79%
c v  1.03 23 314 0 2 479 38 2504 1156 2.9 16 6 3 12 19% 12033 105378 21441 79%
c w  1.06 23 314 0 2 479 38 2504 1156 2.9 16 6 3 12 19% 12033 105378 21441 79%
c x  1.08 23 314 0 2 479 38 2504 1156 2.9 16 6 3 12 19% 12033 105370 21441 79%
c f  1.19 25 314 0 2 479 38 2504 1156 2.9 16 6 3 12 19% 12066 105303 21462 79%
c -  1.39 26 374 0 3 583 38 3414 1680 3.2 17 5 3 11 19% 12161 105302 21462 79%
c -  1.78 26 413 0 4 795 41 5146 2802 3.6 19 5 2 10 21% 12241 105302 21462 79%
c -  2.16 26 419 0 5 974 40 7146 3927 3.4 21 6 2 9 20% 12359 105300 21462 79%
c d  2.25 26 419 0 5 1031 42 7710 4346 3.4 21 6 2 9 20% 12324 105300 21428 79%
c u  2.29 26 419 0 5 1031 42 7710 3682 3.4 21 6 2 9 20% 12353 105300 21428 79%
c v  2.32 26 419 0 5 1031 42 7710 3205 3.4 21 6 2 9 20% 12353 105300 21428 79%
c w  2.36 26 419 0 5 1031 42 7710 3195 3.4 21 6 2 9 20% 12353 105300 21428 79%
c d  2.37 26 419 0 5 1031 42 7710 3193 3.4 21 6 2 9 20% 12345 105300 21424 79%
c t  2.39 26 419 0 5 1031 42 7710 3193 3.4 21 6 2 9 20% 12334 105300 21424 79%
c f  2.44 26 419 0 5 1031 42 7710 3193 3.4 21 6 2 9 20% 12697 104739 21609 80%
c u  2.49 26 419 0 5 1031 42 7710 3097 3.4 21 6 2 9 20% 12702 104739 21609 80%
c v  2.51 26 419 0 5 1031 42 7710 3010 3.4 21 6 2 9 20% 12702 104739 21609 80%
c w  2.55 26 419 0 5 1031 42 7710 3009 3.4 21 6 2 9 20% 12702 104739 21609 80%
c x  2.59 26 419 0 5 1031 42 7710 3009 3.4 21 6 2 9 20% 12704 104727 21609 80%
c t  2.61 26 419 0 5 1031 42 7710 3009 3.4 21 6 2 9 20% 12623 104727 21609 80%
c
c  seconds   switched    rate       size/glue tier1    binary           remaining
c         MB  reductions  conflicts       size  tier2      irredundant
c           level  restarts    redundant    glue   trail           variables
c
c f  2.65 26 419 0 5 1031 42 7710 3009 3.4 21 6 2 9 20% 14984 101178 22797 84%
c -  3.15 28 403 0 6 1222 42 9383 3935 3.8 24 6 2 9 21% 15046 101177 22797 84%
c o  3.55 28 388 0 6 1374 42 10001 4487 4.2 28 7 2 9 22% 15064 101177 22797 84%
c -  4.31 29 361 0 7 1588 40 11832 5356 4.3 31 7 2 9 24% 15102 101177 22797 84%
c s  4.44 29 386 0 7 1617 40 12512 5875 4.3 31 7 2 9 24% 15156 100833 22797 84%
c e  4.59 29 386 0 7 1617 40 12512 5875 4.3 31 7 2 9 24% 14223 101509 22069 82%
c 2  4.59 29 386 0 7 1617 40 12512 5875 4.3 31 7 2 9 24% 14222 101509 22069 82%
c s  4.59 29 386 0 7 1617 40 12512 5875 4.3 31 7 2 9 24% 14231 101176 22069 82%
c e  4.61 29 386 0 7 1617 40 12512 5875 4.3 31 7 2 9 24% 14191 101206 22046 82%
c ^  4.61 29 386 0 7 1617 40 12512 5875 4.3 31 7 2 9 24% 14191 101206 22046 82%
c -  5.20 29 397 0 8 1791 39 14477 6389 4.4 32 7 2 9 24% 14269 101201 22046 82%
c c  5.42 29 390 0 8 1841 37 15792 7420 4.3 31 7 2 9 23% 14336 101095 22014 81%
c d  5.43 29 390 0 8 1841 37 15792 7397 4.3 31 7 2 9 23% 14059 101095 21889 81%
c u  5.48 29 390 0 8 1841 37 15792 6435 4.3 31 7 2 9 23% 14095 101095 21889 81%
c v  5.54 29 390 0 8 1841 37 15792 5556 4.3 31 7 2 9 23% 14096 101095 21889 81%
c w  5.62 29 390 0 8 1841 37 15792 5529 4.3 31 7 2 9 23% 14096 101095 21889 81%
c =  5.87 29 390 0 8 1841 37 15792 5529 4.3 31 7 2 9 23% 14356 101095 21759 81%
c d  5.88 29 390 0 8 1841 37 15792 5518 4.3 31 7 2 9 23% 14028 101095 21753 81%
c t  5.91 29 390 0 8 1841 37 15792 5518 4.3 31 7 2 9 23% 13918 101095 21753 81%
c f  5.99 29 390 0 8 1841 37 15792 5518 4.3 31 7 2 9 23% 13964 100970 21782 81%
c
c  seconds   switched    rate        size/glue tier1    binary           remaining
c         MB  reductions   conflicts       size  tier2      irredundant
c           level  restarts     redundant    glue   trail           variables
c
c b  6.01 29 390 0 8 1841 37 15792 5518 4.3 31 7 2 9 23% 13964 100970 21781 81%
c u  6.04 29 390 0 8 1841 37 15792 5317 4.3 31 7 2 9 23% 13968 100970 21781 81%
c v  6.08 29 390 0 8 1841 37 15792 5201 4.3 31 7 2 9 23% 13968 100970 21781 81%
c w  6.15 29 390 0 8 1841 37 15792 5187 4.3 31 7 2 9 23% 13968 100970 21781 81%
c d  6.16 29 390 0 8 1841 37 15792 5187 4.3 31 7 2 9 23% 13966 100970 21780 81%
c t  6.19 29 390 0 8 1841 37 15792 5187 4.3 31 7 2 9 23% 13958 100970 21780 81%
c -  6.55 29 387 0 9 1932 36 17305 5705 4.2 30 7 2 9 24% 13996 100969 21780 81%
c o  6.93 29 407 0 9 2028 35 20026 8103 4.2 28 7 2 9 23% 14109 100968 21780 81%
c -  7.06 29 404 0 10 2078 35 20305 7466 4.2 29 7 2 8 23% 14118 100968 21780 81%
c -  7.83 29 396 0 11 2307 33 23468 8999 4.1 28 7 2 8 23% 14232 100966 21780 81%
c s  8.18 29 396 0 11 2393 32 25020 10284 4.1 28 7 2 8 23% 14299 100459 21780 81%
c e  8.31 29 396 0 11 2393 32 25020 10284 4.1 28 7 2 8 23% 11419 104671 19968 74%
c 2  8.31 29 396 0 11 2393 32 25020 10284 4.1 28 7 2 8 23% 11417 104671 19968 74%
c s  8.33 29 396 0 11 2393 32 25020 10284 4.1 28 7 2 8 23% 11438 104320 19968 74%
c e  8.35 29 396 0 11 2393 32 25020 10284 4.1 28 7 2 8 23% 11428 104335 19956 74%
c ^  8.35 29 396 0 11 2393 32 25020 10284 4.1 28 7 2 8 23% 11428 104335 19956 74%
c -  8.53 29 439 0 12 2430 32 26785 9331 4.0 26 7 2 8 23% 11503 104331 19956 74%
c c  8.61 29 443 0 12 2431 31 26925 9450 4.0 26 7 2 8 23% 11529 104207 19939 74%
c d  8.62 29 443 0 12 2431 31 26925 9434 4.0 26 7 2 8 23% 11225 104207 19778 73%
c u  8.67 29 443 0 12 2431 31 26925 7836 4.0 26 7 2 8 23% 11257 104207 19778 73%
c
c  seconds   switched     rate        size/glue tier1    binary           remaining
c         MB   reductions   conflicts       size  tier2      irredundant
c           level   restarts     redundant    glue   trail           variables
c
c v  8.72 29 443 0 12 2431 31 26925 6979 4.0 26 7 2 8 23% 11262 104207 19778 73%
c w  8.73 29 443 0 12 2431 31 26925 6978 4.0 26 7 2 8 23% 11262 104207 19778 73%
c x  8.81 29 443 0 12 2431 31 26925 6977 4.0 26 7 2 8 23% 11282 103785 19778 73%
c =  9.02 29 443 0 12 2431 31 26925 6977 4.0 26 7 2 8 23% 11436 103785 19701 73%
c d  9.03 29 443 0 12 2431 31 26925 6972 4.0 26 7 2 8 23% 11272 103785 19699 73%
c t  9.05 29 443 0 12 2431 31 26925 6972 4.0 26 7 2 8 23% 11262 103785 19699 73%
c f  9.11 29 443 0 12 2431 31 26925 6972 4.0 26 7 2 8 23% 11300 103669 19722 73%
c u  9.18 29 443 0 12 2431 31 26925 6643 4.0 26 7 2 8 23% 11303 103669 19722 73%
c v  9.21 29 443 0 12 2431 31 26925 6527 4.0 26 7 2 8 23% 11303 103669 19722 73%
c w  9.22 29 443 0 12 2431 31 26925 6524 4.0 26 7 2 8 23% 11303 103669 19722 73%
c =  9.44 29 443 0 12 2431 31 26925 6524 4.0 26 7 2 8 23% 12217 103669 19265 71%
c d  9.45 29 443 0 12 2431 31 26925 6450 4.0 26 7 2 8 23% 11248 103669 19265 71%
c t  9.47 29 443 0 12 2431 31 26925 6450 4.0 26 7 2 8 23% 11239 103669 19265 71%
c - 10.13 29 414 0 13 2659 30 30249 8491 3.9 25 6 2 8 23% 11309 103667 19265 71%
c - 10.93 29 396 0 14 2942 30 33855 10581 3.9 25 6 2 8 23% 11401 103667 19265 71%
c - 11.84 29 379 0 15 3318 29 37596 12319 3.9 25 7 2 8 23% 11501 103665 19265 71%
c o 12.24 29 366 0 15 3517 29 40029 14351 3.9 26 7 2 8 24% 11578 103665 19265 71%
c d 12.49 29 360 0 15 3655 29 41262 15220 3.9 26 7 2 8 24% 11411 103664 19156 71%
c u 12.54 29 360 0 15 3655 29 41262 12605 3.9 26 7 2 8 24% 11457 103664 19156 71%
c v 12.61 29 360 0 15 3655 29 41262 11007 3.9 26 7 2 8 24% 11461 103664 19156 71%
c
c  seconds   switched     rate         size/glue tier1    binary           remaining
c         MB   reductions   conflicts        size  tier2      irredundant
c           level   restarts      redundant    glue   trail           variables
c
c w 12.66 29 360 0 15 3655 29 41262 11006 3.9 26 7 2 8 24% 11461 103664 19156 71%
c x 12.72 31 360 0 15 3655 29 41262 11006 3.9 26 7 2 8 24% 11464 101031 19156 71%
c = 12.98 31 360 0 15 3655 29 41262 11006 3.9 26 7 2 8 24% 14852 101027 17462 65%
c d 12.98 31 360 0 15 3655 29 41262 10816 3.9 26 7 2 8 24% 11323 101027 17462 65%
c t 13.00 31 360 0 15 3655 29 41262 10816 3.9 26 7 2 8 24% 11204 101027 17462 65%
c f 13.04 31 360 0 15 3655 29 41262 10816 3.9 26 7 2 8 24% 11219 100964 17474 65%
c c 13.09 31 360 0 15 3655 29 41262 10808 3.9 26 7 2 8 24% 11245 100881 17460 65%
c d 13.09 31 360 0 15 3655 29 41262 10808 3.9 26 7 2 8 24% 11217 100881 17460 65%
c u 13.13 31 360 0 15 3655 29 41262 10050 3.9 26 7 2 8 24% 11222 100881 17460 65%
c v 13.16 31 360 0 15 3655 29 41262 9757 3.9 26 7 2 8 24% 11223 100881 17460 65%
c w 13.26 31 360 0 15 3655 29 41262 9748 3.9 26 7 2 8 24% 11223 100881 17460 65%
c x 13.30 31 360 0 15 3655 29 41262 9746 3.9 26 7 2 8 24% 11271 96971 17460 65%
c = 13.57 31 360 0 15 3655 29 41262 9746 3.9 26 7 2 8 24% 15919 96971 15136 56%
c d 13.58 31 360 0 15 3655 29 41262 9432 3.9 26 7 2 8 24% 11106 96971 15136 56%
c t 13.59 31 360 0 15 3655 29 41262 9432 3.9 26 7 2 8 24% 10833 96971 15136 56%
c f 13.63 31 360 0 15 3655 29 41262 9432 3.9 26 7 2 8 24% 10894 96728 15192 56%
c - 13.67 31 359 0 16 3684 29 41471 8631 3.9 26 7 2 7 24% 10895 96728 15192 56%
c - 14.25 31 337 0 17 4060 28 45471 11044 3.8 25 7 2 7 24% 10931 96727 15192 56%
c - 14.98 31 322 0 18 4544 28 49595 13240 3.8 26 7 2 7 24% 11014 96726 15192 56%
c s 15.28 31 315 0 18 4719 28 52139 15410 3.7 26 7 2 7 24% 11074 74078 15192 56%
c
c  seconds   switched     rate         size/glue tier1    binary          remaining
c         MB   reductions   conflicts        size  tier2      irredundant
c           level   restarts      redundant    glue   trail          variables
c
c e 15.35 31 315 0 18 4719 28 52139 15410 3.7 26 7 2 7 24% 10017 75738 14538 54%
c 2 15.35 31 315 0 18 4719 28 52139 15410 3.7 26 7 2 7 24% 10007 75738 14538 54%
c s 15.35 31 315 0 18 4719 28 52139 15410 3.7 26 7 2 7 24% 10020 75298 14538 54%
c e 15.36 31 315 0 18 4719 28 52139 15410 3.7 26 7 2 7 24% 9989 75343 14525 54%
c ^ 15.36 31 315 0 18 4719 28 52139 15410 3.7 26 7 2 7 24% 9989 75343 14525 54%
c - 15.66 31 309 0 19 4933 28 53838 13586 3.7 26 7 2 7 24% 10000 75343 14525 54%
c - 16.53 31 295 0 20 5546 28 58197 15536 3.7 27 7 2 6 25% 10028 75343 14525 54%
c d 16.59 31 293 0 20 5577 28 58891 16185 3.7 27 7 2 6 25% 10024 75343 14522 54%
c u 16.64 31 293 0 20 5577 28 58891 12905 3.7 27 7 2 6 25% 10053 75343 14522 54%
c v 16.70 31 293 0 20 5577 28 58891 11307 3.7 27 7 2 6 25% 10054 75343 14522 54%
c w 16.72 31 293 0 20 5577 28 58891 11275 3.7 27 7 2 6 25% 10054 75343 14522 54%
c x 16.82 31 293 0 20 5577 28 58891 11264 3.7 27 7 2 6 25% 10093 73584 14522 54%
c = 17.12 31 293 0 20 5577 28 58891 11264 3.7 27 7 2 6 25% 12297 73584 13420 50%
c d 17.13 31 293 0 20 5577 28 58891 11102 3.7 27 7 2 6 25% 10010 73583 13419 50%
c t 17.14 31 293 0 20 5577 28 58891 11102 3.7 27 7 2 6 25% 9815 73583 13419 50%
c f 17.17 31 293 0 20 5577 28 58891 11102 3.7 27 7 2 6 25% 9833 73344 13455 50%
c u 17.22 31 293 0 20 5577 28 58891 10266 3.7 27 7 2 6 25% 9840 73344 13455 50%
c v 17.25 31 293 0 20 5577 28 58891 10009 3.7 27 7 2 6 25% 9840 73344 13455 50%
c w 17.26 31 293 0 20 5577 28 58891 9997 3.7 27 7 2 6 25% 9840 73344 13455 50%
c x 17.39 31 293 0 20 5577 28 58891 9995 3.7 27 7 2 6 25% 9857 66607 13455 50%
c
c  seconds   switched     rate        size/glue tier1    binary         remaining
c         MB   reductions   conflicts       size  tier2     irredundant
c           level   restarts     redundant    glue   trail         variables
c
c = 17.67 31 293 0 20 5577 28 58891 9995 3.7 27 7 2 6 25% 9889 66607 13439 50%
c d 17.68 31 293 0 20 5577 28 58891 9990 3.7 27 7 2 6 25% 9856 66607 13439 50%
c t 17.68 31 293 0 20 5577 28 58891 9990 3.7 27 7 2 6 25% 9840 66607 13439 50%
c f 17.69 31 293 0 20 5577 28 58891 9990 3.7 27 7 2 6 25% 9844 66593 13441 50%
c - 18.35 30 284 0 21 6059 28 62669 12050 3.7 27 7 2 6 26% 9860 66592 13441 50%
c - 18.84 30 277 0 22 6387 27 67252 14542 3.6 27 7 2 6 26% 9914 66591 13441 50%
c o 19.16 30 271 0 22 6617 27 70037 17020 3.6 27 8 2 6 26% 9958 66588 13441 50%
c - 19.54 30 268 0 23 6913 27 71942 16497 3.6 27 8 2 6 26% 9970 66588 13441 50%
c - 20.13 30 259 0 24 7315 27 76737 16556 3.6 27 8 1 6 26% 10025 66583 13441 50%
c d 20.69 30 253 0 24 7751 27 79994 19598 3.6 28 8 1 6 27% 10013 66583 13430 50%
c u 20.73 30 253 0 24 7751 27 79994 17671 3.6 28 8 1 6 27% 10029 66583 13430 50%
c v 20.82 30 253 0 24 7751 27 79994 14746 3.6 28 8 1 6 27% 10035 66583 13430 50%
c w 20.88 30 253 0 24 7751 27 79994 14745 3.6 28 8 1 6 27% 10035 66583 13430 50%
c x 20.95 30 253 0 24 7751 27 79994 14738 3.6 28 8 1 6 27% 10036 66294 13430 50%
c = 21.17 30 253 0 24 7751 27 79994 14738 3.6 28 8 1 6 27% 10040 66294 13428 50%
c d 21.18 30 253 0 24 7751 27 79994 14734 3.6 28 8 1 6 27% 10030 66294 13426 50%
c t 21.19 30 253 0 24 7751 27 79994 14734 3.6 28 8 1 6 27% 9980 66294 13426 50%
c c 21.23 30 253 0 24 7751 27 79994 14728 3.6 28 8 1 6 27% 9992 66265 13421 50%
c d 21.23 30 253 0 24 7751 27 79994 14727 3.6 28 8 1 6 27% 9982 66265 13421 50%
c u 21.27 30 253 0 24 7751 27 79994 14349 3.6 28 8 1 6 27% 9984 66265 13421 50%
c
c  seconds   switched     rate         size/glue tier1    binary         remaining
c         MB   reductions   conflicts        size  tier2     irredundant
c           level   restarts      redundant    glue   trail         variables
c
c v 21.32 30 253 0 24 7751 27 79994 13774 3.6 28 8 1 6 27% 9986 66265 13421 50%
c w 21.43 30 253 0 24 7751 27 79994 13764 3.6 28 8 1 6 27% 9986 66265 13421 50%
c x 21.50 30 253 0 24 7751 27 79994 13762 3.6 28 8 1 6 27% 9989 66149 13421 50%
c = 21.90 30 253 0 24 7751 27 79994 13762 3.6 28 8 1 6 27% 10357 66048 13225 49%
c d 21.91 30 253 0 24 7751 27 79994 13642 3.6 28 8 1 6 27% 9964 66048 13225 49%
c t 21.92 30 253 0 24 7751 27 79994 13642 3.6 28 8 1 6 27% 9821 66048 13225 49%
c f 21.93 30 253 0 24 7751 27 79994 13642 3.6 28 8 1 6 27% 9838 65945 13240 49%
c - 22.12 30 250 0 25 7878 26 81635 12468 3.6 27 8 1 6 27% 9830 65944 13240 49%
c i 22.73 30 244 0 25 8369 26 86155 16692 3.6 28 8 1 6 27% 9868 65942 13239 49%
c i 22.78 30 243 0 25 8418 26 86545 17043 3.6 28 8 1 6 27% 9879 65941 13238 49%
c - 22.79 30 243 0 26 8418 26 86635 14416 3.5 28 8 1 6 27% 9870 65940 13238 49%
c i 23.11 30 238 0 26 8639 26 89395 16986 3.5 28 8 1 6 27% 9882 65938 13237 49%
c - 23.41 30 233 0 27 8877 26 91734 16153 3.5 28 8 1 6 27% 9890 65938 13237 49%
c i 23.51 30 232 0 27 8963 26 92286 16667 3.5 28 8 1 6 27% 9894 65938 13236 49%
c i 23.62 30 232 0 27 9065 26 92881 17231 3.5 28 8 1 6 27% 9898 65938 13235 49%
c i 23.62 30 232 0 27 9066 26 92886 17230 3.5 28 8 1 6 27% 9901 65938 13234 49%
c i 23.90 30 229 0 27 9266 26 94561 18794 3.5 28 8 1 6 28% 9907 65935 13233 49%
c s 24.09 30 227 0 27 9385 26 95827 19990 3.5 28 8 1 6 28% 9915 65408 13233 49%
c e 24.18 30 227 0 27 9385 26 95827 19990 3.5 28 8 1 6 28% 6579 73033 11570 43%
c 2 24.18 30 227 0 27 9385 26 95827 19990 3.5 28 8 1 6 28% 6566 73033 11570 43%
c
c  seconds   switched     rate         size/glue tier1    binary         remaining
c         MB   reductions   conflicts        size  tier2     irredundant
c           level   restarts      redundant    glue   trail         variables
c
c s 24.19 30 227 0 27 9385 26 95827 19990 3.5 28 8 1 6 28% 6598 72423 11570 43%
c e 24.20 30 227 0 27 9385 26 95827 19990 3.5 28 8 1 6 28% 6531 72568 11533 43%
c ^ 24.20 30 227 0 27 9385 26 95827 19990 3.5 28 8 1 6 28% 6531 72568 11533 43%
c i 24.26 30 226 0 27 9438 26 96208 15086 3.5 28 8 1 6 28% 6537 72568 11532 43%
c - 24.33 30 225 0 28 9479 25 96930 13498 3.5 28 8 1 6 28% 6535 72556 11532 43%
c i 24.94 30 219 0 28 9967 25 101367 17675 3.4 28 8 1 6 28% 6554 72550 11531 43%
c - 25.05 30 218 0 29 10039 25 102221 15508 3.4 28 8 1 6 28% 6549 72550 11531 43%
c d 25.41 30 215 0 29 10314 25 104660 17826 3.4 28 8 1 6 28% 6554 72529 11530 43%
c d 25.41 30 215 0 29 10314 25 104660 17826 3.4 28 8 1 6 28% 6552 72527 11529 43%
c u 25.44 30 215 0 29 10314 25 104660 16066 3.4 28 8 1 6 28% 6572 72527 11527 43%
c v 25.51 30 215 0 29 10314 25 104660 13251 3.4 28 8 1 6 28% 6581 72527 11527 43%
c w 25.68 30 215 0 29 10314 25 104660 13054 3.4 28 8 1 6 28% 6581 72527 11527 43%
c = 25.78 30 215 0 29 10314 25 104660 13054 3.4 28 8 1 6 28% 6701 72101 11422 42%
c } 25.78 30 215 0 29 10314 25 104660 13054 3.4 28 8 1 6 28% 6701 72101 11481 42%
c 0 25.78 30 215 0 29 10314 25 104660 13054 3.4 28 8 1 6 28% 6701 72101 11481 42%
c
c ---- [ result ] ------------------------------------------------------------
c
s UNSATISFIABLE
c
c ---- [ profiling ] ---------------------------------------------------------
c
c          18.29   70.93 %  search
c          18.29   70.93 %  focused
c           7.17   27.82 %  simplify
c           6.69   25.95 %  probe
c           2.63   10.22 %  sweep
c           2.56    9.92 %  vivify
c           0.63    2.43 %  eliminate
c           0.57    2.20 %  factor
c           0.42    1.63 %  substitute
c           0.34    1.30 %  congruence
c           0.28    1.08 %  preprocess
c           0.16    0.61 %  reduce
c           0.13    0.50 %  fastel
c           0.11    0.44 %  subsume
c           0.11    0.44 %  transitive
c           0.06    0.25 %  backbone
c           0.02    0.10 %  lucky
c           0.02    0.07 %  parse
c =============================================
c          25.78  100.00 %  total
c
c ---- [ statistics ] --------------------------------------------------------
c
c chronological:                         5587                5 %  conflicts
c conflicts:                           104660             4059.06 per second
c congruent:                               77                0 %  variables
c decisions:                          2623819               25.07 per conflict
c eliminated:                           13808               51 %  variables
c factored:                              4884               18 %  variables
c fast_eliminated:                       8867               64 %  eliminated
c fast_strengthened:                      149               14 %  per strengthened
c fast_subsumed:                          117                0 %  per subsumed
c iterations:                               9                0 %  variables
c propagations:                     109889122          4261858    per second
c reductions:                              29             3609    interval
c reordered:                                4            26165    interval
c restarts:                             10314               10    interval
c strengthened:                          1102                0 %  checks
c substituted:                           6537               24 %  variables
c subsumed:                             25752                1 %  checks
c switched:                                 0                0    interval
c vivified:                             53544               13 %  checks
c
c ---- [ glue usage ] --------------------------------------------------------
c
c focused glue 1   used 127713 clauses 55.50% accumulated 55.50% tier1
c focused glue 2   used  50986 clauses 22.16% accumulated 77.66%
c focused glue 3-4 used  22415 clauses  9.74% accumulated 87.40%
c focused glue 5   used   5588 clauses  2.43% accumulated 89.82%
c focused glue 6   used   4224 clauses  1.84% accumulated 91.66% tier2
c
c ---- [ resources ] ---------------------------------------------------------
c
c maximum-resident-set-size:         32055296 bytes         31 MB
c process-time:                            26s              25.78 seconds
c
c ---- [ shutting down ] -----------------------------------------------------
c
c exit 20
